Route #1: 1 30 56 22 26 54 60 20 1
Route #2: 1 63 29 24 64 12 55 1
Route #3: 1 52 18 44 50 16 28 5 1
Route #4: 1 40 8 49 58 2 34 13 14 25 53 19 1
Route #5: 1 48 35 32 27 7 65 47 1
Route #6: 1 6 46 33 59 21 62 43 39 3 1
Route #7: 1 23 10 15 4 37 36 51 1
Route #8: 1 31 38 61 42 17 41 1
Route #9: 1 9 11 57 45 1
cost 1359.7357944307028
